\* Sub_Problem *\
Minimize
OBJ: - 0.2 x_0_ - 0.3 x_1_ - 0.4 x_2_ - 0.5 x_3_
Subject To
_C1: 8 x_0_ + 12 x_1_ + 16 x_2_ + 20 x_3_ <= 40
Bounds
 0 <= x_0_
 0 <= x_1_
 0 <= x_2_
 0 <= x_3_
Generals
x_0_
x_1_
x_2_
x_3_
End
